x = 20;
y = 19;
c = 90;
n = 35;

p = [42  82  50  45  18  46  12  14  48  52  57  67  25  65  98  88  15  65  49  69  89  65  66  97  84  84  21  35  80  19  99  26  34  55  91];
w = [6  4  3  3  3  2  4  7  10  4  6  1  3  5  4  2  4  10  2  5  5  10  6  5  5  1  1  1  8  7  4  2  7  7  3];
s = [8  5  2  8  18  1  10  18  3  9  9  6  13  13  17  17  11  17  4  2  19  7  5  10  4  14  10  1  11  6  8  14  2  16  10];
